60
1 0 4
2 0 11
2 1 12
3 0 2
3 1 11
3 2 4
4 0 11
4 1 8
4 2 5
4 3 8
5 0 8
5 1 3
5 2 2
5 3 8
5 4 10
6 0 8
6 1 6
6 2 2
6 3 10
6 4 8
6 5 1
7 0 3
7 1 5
7 2 5
7 3 6
7 4 3
7 5 8
7 6 12
8 0 4
8 1 6
8 2 12
8 3 10
8 4 1
8 5 3
8 6 4
8 7 4
9 0 3
9 1 9
9 2 3
9 3 2
9 4 8
9 5 6
9 6 11
9 7 2
9 8 12
10 0 12
10 1 8
10 2 9
10 3 3
10 4 2
10 5 7
10 6 12
10 7 9
10 8 7
10 9 2
11 0 7
11 1 5
11 2 6
11 3 5
11 4 2
11 5 10
11 6 8
11 7 2
11 8 3
11 9 4
11 10 7
12 0 1
12 1 6
12 2 8
12 3 11
12 4 2
12 5 9
12 6 3
12 7 9
12 8 6
12 9 1
12 10 11
12 11 7
13 0 4
13 1 6
13 2 5
13 3 7
13 4 12
13 5 2
13 6 5
13 7 1
13 8 5
13 9 11
13 10 11
13 11 2
13 12 12
14 0 5
14 1 3
14 2 1
14 3 8
14 4 3
14 5 2
14 6 8
14 7 1
14 8 1
14 9 8
14 10 3
14 11 7
14 12 2
14 13 4
15 0 12
15 1 12
15 2 12
15 3 10
15 4 2
15 5 8
15 6 12
15 7 4
15 8 12
15 9 1
15 10 10
15 11 12
15 12 9
15 13 10
15 14 4
16 0 10
16 1 3
16 2 1
16 3 9
16 4 9
16 5 1
16 6 4
16 7 10
16 8 12
16 9 2
16 10 8
16 11 3
16 12 5
16 13 5
16 14 3
16 15 1
17 0 10
17 1 8
17 2 11
17 3 8
17 4 8
17 5 4
17 6 11
17 7 4
17 8 3
17 9 8
17 10 4
17 11 1
17 12 10
17 13 10
17 14 11
17 15 1
17 16 8
18 0 1
18 1 10
18 2 2
18 3 2
18 4 2
18 5 10
18 6 6
18 7 4
18 8 3
18 9 1
18 10 12
18 11 10
18 12 7
18 13 10
18 14 11
18 15 9
18 16 3
18 17 2
19 0 10
19 1 1
19 2 5
19 3 6
19 4 4
19 5 8
19 6 8
19 7 12
19 8 6
19 9 8
19 10 3
19 11 9
19 12 8
19 13 8
19 14 7
19 15 12
19 16 11
19 17 2
19 18 3
20 0 2
20 1 2
20 2 5
20 3 2
20 4 9
20 5 8
20 6 7
20 7 7
20 8 3
20 9 11
20 10 1
20 11 6
20 12 12
20 13 7
20 14 11
20 15 9
20 16 5
20 17 1
20 18 1
20 19 12
21 0 1
21 1 7
21 2 4
21 3 6
21 4 6
21 5 7
21 6 3
21 7 6
21 8 2
21 9 4
21 10 12
21 11 9
21 12 7
21 13 5
21 14 9
21 15 11
21 16 2
21 17 8
21 18 9
21 19 3
21 20 6
22 0 11
22 1 3
22 2 4
22 3 6
22 4 2
22 5 2
22 6 8
22 7 7
22 8 7
22 9 11
22 10 11
22 11 10
22 12 4
22 13 1
22 14 4
22 15 4
22 16 7
22 17 6
22 18 6
22 19 9
22 20 1
22 21 5
23 0 9
23 1 12
23 2 6
23 3 1
23 4 3
23 5 1
23 6 12
23 7 2
23 8 2
23 9 2
23 10 10
23 11 12
23 12 5
23 13 4
23 14 4
23 15 5
23 16 9
23 17 5
23 18 7
23 19 8
23 20 10
23 21 5
23 22 3
24 0 9
24 1 1
24 2 10
24 3 10
24 4 4
24 5 2
24 6 6
24 7 6
24 8 12
24 9 4
24 10 9
24 11 10
24 12 8
24 13 7
24 14 11
24 15 2
24 16 7
24 17 1
24 18 3
24 19 12
24 20 9
24 21 10
24 22 1
24 23 6
25 0 6
25 1 3
25 2 6
25 3 12
25 4 12
25 5 7
25 6 6
25 7 5
25 8 12
25 9 10
25 10 8
25 11 1
25 12 7
25 13 7
25 14 12
25 15 8
25 16 2
25 17 5
25 18 4
25 19 9
25 20 1
25 21 7
25 22 9
25 23 6
25 24 9
26 0 1
26 1 8
26 2 7
26 3 6
26 4 7
26 5 5
26 6 10
26 7 3
26 8 8
26 9 7
26 10 10
26 11 3
26 12 9
26 13 2
26 14 10
26 15 1
26 16 5
26 17 7
26 18 11
26 19 11
26 20 11
26 21 9
26 22 5
26 23 4
26 24 1
26 25 11
27 0 11
27 1 12
27 2 10
27 3 5
27 4 2
27 5 8
27 6 10
27 7 2
27 8 5
27 9 6
27 10 8
27 11 5
27 12 5
27 13 2
27 14 5
27 15 9
27 16 5
27 17 12
27 18 6
27 19 1
27 20 5
27 21 8
27 22 11
27 23 7
27 24 5
27 25 9
27 26 2
28 0 4
28 1 9
28 2 12
28 3 10
28 4 11
28 5 5
28 6 9
28 7 7
28 8 7
28 9 6
28 10 9
28 11 4
28 12 7
28 13 4
28 14 8
28 15 2
28 16 2
28 17 7
28 18 11
28 19 10
28 20 5
28 21 7
28 22 11
28 23 1
28 24 10
28 25 4
28 26 2
28 27 5
29 0 10
29 1 2
29 2 5
29 3 11
29 4 4
29 5 8
29 6 4
29 7 7
29 8 2
29 9 12
29 10 9
29 11 3
29 12 4
29 13 10
29 14 9
29 15 8
29 16 9
29 17 4
29 18 5
29 19 4
29 20 9
29 21 9
29 22 2
29 23 3
29 24 10
29 25 10
29 26 1
29 27 9
29 28 1
30 0 11
30 1 8
30 2 4
30 3 4
30 4 8
30 5 12
30 6 7
30 7 1
30 8 7
30 9 8
30 10 11
30 11 10
30 12 11
30 13 8
30 14 2
30 15 9
30 16 1
30 17 3
30 18 5
30 19 3
30 20 7
30 21 5
30 22 1
30 23 5
30 24 11
30 25 1
30 26 3
30 27 9
30 28 6
30 29 1
31 0 11
31 1 1
31 2 12
31 3 8
31 4 7
31 5 6
31 6 10
31 7 3
31 8 6
31 9 12
31 10 6
31 11 3
31 12 1
31 13 8
31 14 6
31 15 8
31 16 2
31 17 8
31 18 8
31 19 6
31 20 8
31 21 10
31 22 10
31 23 11
31 24 10
31 25 11
31 26 5
31 27 3
31 28 7
31 29 1
31 30 11
32 0 5
32 1 4
32 2 1
32 3 1
32 4 3
32 5 11
32 6 10
32 7 12
32 8 9
32 9 5
32 10 7
32 11 12
32 12 11
32 13 4
32 14 3
32 15 2
32 16 1
32 17 4
32 18 3
32 19 7
32 20 12
32 21 5
32 22 1
32 23 2
32 24 9
32 25 7
32 26 5
32 27 7
32 28 11
32 29 10
32 30 10
32 31 4
33 0 2
33 1 7
33 2 1
33 3 5
33 4 4
33 5 8
33 6 8
33 7 5
33 8 2
33 9 3
33 10 11
33 11 4
33 12 8
33 13 1
33 14 12
33 15 3
33 16 4
33 17 9
33 18 6
33 19 9
33 20 12
33 21 3
33 22 6
33 23 7
33 24 10
33 25 5
33 26 7
33 27 5
33 28 1
33 29 12
33 30 1
33 31 7
33 32 7
34 0 6
34 1 1
34 2 1
34 3 11
34 4 2
34 5 8
34 6 10
34 7 4
34 8 5
34 9 3
34 10 12
34 11 7
34 12 12
34 13 7
34 14 9
34 15 5
34 16 9
34 17 3
34 18 2
34 19 5
34 20 2
34 21 5
34 22 12
34 23 10
34 24 5
34 25 3
34 26 1
34 27 10
34 28 12
34 29 6
34 30 8
34 31 11
34 32 3
34 33 9
35 0 4
35 1 11
35 2 12
35 3 8
35 4 2
35 5 4
35 6 11
35 7 9
35 8 4
35 9 12
35 10 11
35 11 9
35 12 12
35 13 6
35 14 12
35 15 8
35 16 10
35 17 4
35 18 10
35 19 4
35 20 4
35 21 8
35 22 12
35 23 11
35 24 10
35 25 2
35 26 10
35 27 3
35 28 4
35 29 12
35 30 6
35 31 7
35 32 7
35 33 8
35 34 11
36 0 12
36 1 5
36 2 10
36 3 8
36 4 2
36 5 12
36 6 8
36 7 7
36 8 8
36 9 12
36 10 7
36 11 12
36 12 9
36 13 1
36 14 9
36 15 12
36 16 3
36 17 8
36 18 6
36 19 9
36 20 6
36 21 5
36 22 6
36 23 5
36 24 1
36 25 12
36 26 11
36 27 7
36 28 12
36 29 8
36 30 12
36 31 2
36 32 8
36 33 10
36 34 12
36 35 6
37 0 6
37 1 4
37 2 1
37 3 4
37 4 12
37 5 9
37 6 5
37 7 10
37 8 3
37 9 10
37 10 1
37 11 3
37 12 3
37 13 5
37 14 2
37 15 12
37 16 11
37 17 12
37 18 8
37 19 2
37 20 10
37 21 12
37 22 6
37 23 9
37 24 12
37 25 1
37 26 1
37 27 5
37 28 6
37 29 2
37 30 1
37 31 3
37 32 6
37 33 11
37 34 2
37 35 2
37 36 4
38 0 1
38 1 11
38 2 6
38 3 3
38 4 7
38 5 10
38 6 2
38 7 5
38 8 8
38 9 11
38 10 6
38 11 10
38 12 5
38 13 1
38 14 11
38 15 3
38 16 9
38 17 4
38 18 10
38 19 6
38 20 10
38 21 1
38 22 3
38 23 2
38 24 9
38 25 10
38 26 2
38 27 6
38 28 4
38 29 3
38 30 6
38 31 10
38 32 10
38 33 8
38 34 12
38 35 6
38 36 6
38 37 7
39 0 1
39 1 5
39 2 1
39 3 11
39 4 1
39 5 1
39 6 4
39 7 9
39 8 12
39 9 5
39 10 11
39 11 11
39 12 6
39 13 4
39 14 10
39 15 1
39 16 2
39 17 7
39 18 7
39 19 7
39 20 10
39 21 2
39 22 11
39 23 2
39 24 7
39 25 10
39 26 6
39 27 11
39 28 7
39 29 7
39 30 10
39 31 3
39 32 5
39 33 10
39 34 2
39 35 2
39 36 5
39 37 11
39 38 4
40 0 10
40 1 9
40 2 5
40 3 6
40 4 10
40 5 12
40 6 7
40 7 2
40 8 10
40 9 7
40 10 9
40 11 9
40 12 7
40 13 5
40 14 10
40 15 1
40 16 6
40 17 3
40 18 8
40 19 8
40 20 3
40 21 11
40 22 5
40 23 11
40 24 11
40 25 4
40 26 5
40 27 5
40 28 10
40 29 6
40 30 9
40 31 3
40 32 4
40 33 1
40 34 2
40 35 11
40 36 2
40 37 7
40 38 8
40 39 11
41 0 11
41 1 3
41 2 3
41 3 2
41 4 9
41 5 10
41 6 3
41 7 6
41 8 10
41 9 8
41 10 5
41 11 9
41 12 10
41 13 1
41 14 6
41 15 2
41 16 4
41 17 12
41 18 2
41 19 6
41 20 3
41 21 7
41 22 9
41 23 2
41 24 7
41 25 4
41 26 2
41 27 5
41 28 12
41 29 6
41 30 6
41 31 6
41 32 9
41 33 3
41 34 12
41 35 3
41 36 5
41 37 10
41 38 7
41 39 3
41 40 6
42 0 10
42 1 1
42 2 10
42 3 5
42 4 1
42 5 3
42 6 7
42 7 10
42 8 3
42 9 4
42 10 3
42 11 4
42 12 2
42 13 10
42 14 6
42 15 1
42 16 10
42 17 7
42 18 12
42 19 5
42 20 4
42 21 7
42 22 12
42 23 6
42 24 2
42 25 12
42 26 6
42 27 9
42 28 3
42 29 7
42 30 9
42 31 5
42 32 6
42 33 9
42 34 10
42 35 12
42 36 4
42 37 12
42 38 8
42 39 11
42 40 2
42 41 10
43 0 2
43 1 4
43 2 7
43 3 6
43 4 4
43 5 3
43 6 5
43 7 9
43 8 10
43 9 11
43 10 3
43 11 3
43 12 10
43 13 1
43 14 3
43 15 8
43 16 3
43 17 9
43 18 3
43 19 7
43 20 3
43 21 4
43 22 3
43 23 1
43 24 12
43 25 2
43 26 8
43 27 2
43 28 8
43 29 8
43 30 12
43 31 4
43 32 3
43 33 5
43 34 12
43 35 10
43 36 8
43 37 8
43 38 6
43 39 12
43 40 11
43 41 12
43 42 9
44 0 10
44 1 7
44 2 2
44 3 8
44 4 12
44 5 4
44 6 5
44 7 2
44 8 11
44 9 10
44 10 1
44 11 11
44 12 10
44 13 7
44 14 2
44 15 9
44 16 8
44 17 8
44 18 9
44 19 6
44 20 3
44 21 3
44 22 5
44 23 5
44 24 6
44 25 2
44 26 3
44 27 1
44 28 10
44 29 11
44 30 1
44 31 1
44 32 8
44 33 5
44 34 4
44 35 6
44 36 8
44 37 4
44 38 1
44 39 10
44 40 10
44 41 7
44 42 9
44 43 9
45 0 7
45 1 4
45 2 4
45 3 9
45 4 6
45 5 9
45 6 10
45 7 12
45 8 1
45 9 10
45 10 6
45 11 11
45 12 1
45 13 9
45 14 6
45 15 2
45 16 7
45 17 8
45 18 2
45 19 5
45 20 5
45 21 11
45 22 7
45 23 12
45 24 1
45 25 2
45 26 5
45 27 10
45 28 12
45 29 7
45 30 5
45 31 1
45 32 7
45 33 5
45 34 9
45 35 3
45 36 9
45 37 3
45 38 3
45 39 5
45 40 7
45 41 11
45 42 9
45 43 9
45 44 2
46 0 6
46 1 4
46 2 7
46 3 8
46 4 10
46 5 1
46 6 1
46 7 3
46 8 8
46 9 10
46 10 9
46 11 11
46 12 7
46 13 5
46 14 9
46 15 12
46 16 4
46 17 12
46 18 3
46 19 1
46 20 11
46 21 9
46 22 4
46 23 8
46 24 10
46 25 10
46 26 9
46 27 8
46 28 5
46 29 8
46 30 10
46 31 5
46 32 9
46 33 9
46 34 7
46 35 9
46 36 9
46 37 6
46 38 5
46 39 9
46 40 12
46 41 10
46 42 10
46 43 8
46 44 11
46 45 1
47 0 9
47 1 5
47 2 11
47 3 10
47 4 12
47 5 4
47 6 6
47 7 2
47 8 12
47 9 10
47 10 8
47 11 5
47 12 12
47 13 12
47 14 9
47 15 4
47 16 4
47 17 1
47 18 7
47 19 5
47 20 7
47 21 11
47 22 8
47 23 8
47 24 2
47 25 5
47 26 5
47 27 9
47 28 10
47 29 6
47 30 9
47 31 11
47 32 6
47 33 12
47 34 9
47 35 12
47 36 3
47 37 12
47 38 12
47 39 2
47 40 1
47 41 10
47 42 7
47 43 7
47 44 2
47 45 6
47 46 11
48 0 5
48 1 5
48 2 7
48 3 9
48 4 6
48 5 5
48 6 9
48 7 1
48 8 9
48 9 7
48 10 6
48 11 6
48 12 9
48 13 2
48 14 8
48 15 4
48 16 7
48 17 10
48 18 9
48 19 4
48 20 9
48 21 9
48 22 9
48 23 6
48 24 6
48 25 7
48 26 4
48 27 2
48 28 1
48 29 9
48 30 4
48 31 7
48 32 4
48 33 10
48 34 2
48 35 8
48 36 11
48 37 9
48 38 8
48 39 6
48 40 8
48 41 8
48 42 5
48 43 7
48 44 6
48 45 3
48 46 6
48 47 11
49 0 11
49 1 12
49 2 3
49 3 10
49 4 3
49 5 7
49 6 3
49 7 3
49 8 11
49 9 7
49 10 6
49 11 12
49 12 11
49 13 11
49 14 3
49 15 4
49 16 8
49 17 8
49 18 8
49 19 12
49 20 6
49 21 12
49 22 9
49 23 12
49 24 8
49 25 2
49 26 7
49 27 12
49 28 3
49 29 6
49 30 9
49 31 5
49 32 12
49 33 9
49 34 6
49 35 7
49 36 10
49 37 4
49 38 6
49 39 12
49 40 1
49 41 10
49 42 12
49 43 11
49 44 8
49 45 2
49 46 5
49 47 8
49 48 12
50 0 12
50 1 3
50 2 4
50 3 5
50 4 5
50 5 6
50 6 2
50 7 2
50 8 9
50 9 2
50 10 5
50 11 1
50 12 7
50 13 4
50 14 11
50 15 2
50 16 11
50 17 6
50 18 4
50 19 8
50 20 10
50 21 8
50 22 3
50 23 8
50 24 5
50 25 1
50 26 10
50 27 2
50 28 2
50 29 12
50 30 4
50 31 1
50 32 3
50 33 10
50 34 10
50 35 8
50 36 6
50 37 1
50 38 3
50 39 2
50 40 3
50 41 4
50 42 9
50 43 11
50 44 7
50 45 1
50 46 11
50 47 10
50 48 12
50 49 11
51 0 12
51 1 11
51 2 11
51 3 8
51 4 2
51 5 8
51 6 1
51 7 2
51 8 1
51 9 4
51 10 3
51 11 10
51 12 5
51 13 4
51 14 5
51 15 8
51 16 11
51 17 12
51 18 11
51 19 7
51 20 7
51 21 1
51 22 10
51 23 4
51 24 5
51 25 9
51 26 3
51 27 4
51 28 2
51 29 8
51 30 7
51 31 11
51 32 1
51 33 11
51 34 1
51 35 10
51 36 12
51 37 7
51 38 8
51 39 2
51 40 11
51 41 8
51 42 12
51 43 2
51 44 5
51 45 8
51 46 12
51 47 5
51 48 9
51 49 4
51 50 10
52 0 12
52 1 2
52 2 5
52 3 1
52 4 2
52 5 8
52 6 9
52 7 10
52 8 7
52 9 12
52 10 8
52 11 7
52 12 5
52 13 11
52 14 7
52 15 9
52 16 6
52 17 11
52 18 5
52 19 10
52 20 9
52 21 12
52 22 12
52 23 6
52 24 2
52 25 8
52 26 7
52 27 7
52 28 7
52 29 4
52 30 10
52 31 11
52 32 6
52 33 6
52 34 1
52 35 2
52 36 8
52 37 4
52 38 7
52 39 7
52 40 12
52 41 6
52 42 7
52 43 3
52 44 2
52 45 8
52 46 1
52 47 8
52 48 10
52 49 6
52 50 1
52 51 6
53 0 3
53 1 12
53 2 1
53 3 10
53 4 8
53 5 12
53 6 11
53 7 5
53 8 11
53 9 5
53 10 12
53 11 8
53 12 7
53 13 4
53 14 7
53 15 1
53 16 11
53 17 5
53 18 2
53 19 10
53 20 6
53 21 8
53 22 8
53 23 5
53 24 2
53 25 5
53 26 8
53 27 11
53 28 4
53 29 8
53 30 12
53 31 12
53 32 2
53 33 8
53 34 3
53 35 3
53 36 9
53 37 6
53 38 12
53 39 2
53 40 6
53 41 1
53 42 9
53 43 5
53 44 3
53 45 10
53 46 3
53 47 8
53 48 5
53 49 12
53 50 6
53 51 10
53 52 11
54 0 5
54 1 4
54 2 7
54 3 5
54 4 6
54 5 1
54 6 11
54 7 8
54 8 12
54 9 1
54 10 12
54 11 11
54 12 12
54 13 2
54 14 2
54 15 6
54 16 2
54 17 12
54 18 5
54 19 2
54 20 6
54 21 9
54 22 6
54 23 1
54 24 10
54 25 12
54 26 8
54 27 10
54 28 7
54 29 12
54 30 6
54 31 12
54 32 12
54 33 9
54 34 1
54 35 4
54 36 8
54 37 3
54 38 8
54 39 1
54 40 9
54 41 1
54 42 10
54 43 4
54 44 5
54 45 4
54 46 5
54 47 9
54 48 4
54 49 9
54 50 7
54 51 2
54 52 4
54 53 6
55 0 8
55 1 5
55 2 1
55 3 4
55 4 6
55 5 9
55 6 10
55 7 6
55 8 2
55 9 10
55 10 12
55 11 8
55 12 4
55 13 12
55 14 1
55 15 1
55 16 2
55 17 2
55 18 1
55 19 7
55 20 10
55 21 9
55 22 8
55 23 11
55 24 7
55 25 4
55 26 10
55 27 4
55 28 5
55 29 9
55 30 10
55 31 7
55 32 9
55 33 8
55 34 2
55 35 3
55 36 5
55 37 3
55 38 3
55 39 8
55 40 6
55 41 8
55 42 4
55 43 10
55 44 10
55 45 12
55 46 6
55 47 2
55 48 3
55 49 6
55 50 1
55 51 3
55 52 12
55 53 11
55 54 4
56 0 2
56 1 8
56 2 3
56 3 12
56 4 1
56 5 6
56 6 3
56 7 11
56 8 6
56 9 2
56 10 1
56 11 12
56 12 10
56 13 8
56 14 7
56 15 2
56 16 8
56 17 6
56 18 6
56 19 8
56 20 8
56 21 6
56 22 10
56 23 6
56 24 1
56 25 9
56 26 7
56 27 2
56 28 8
56 29 8
56 30 6
56 31 11
56 32 6
56 33 11
56 34 12
56 35 10
56 36 3
56 37 3
56 38 12
56 39 5
56 40 5
56 41 3
56 42 6
56 43 5
56 44 12
56 45 12
56 46 10
56 47 7
56 48 10
56 49 8
56 50 9
56 51 8
56 52 3
56 53 8
56 54 1
56 55 9
57 0 6
57 1 11
57 2 11
57 3 2
57 4 12
57 5 4
57 6 11
57 7 8
57 8 7
57 9 3
57 10 3
57 11 5
57 12 1
57 13 2
57 14 10
57 15 3
57 16 5
57 17 10
57 18 9
57 19 12
57 20 10
57 21 10
57 22 8
57 23 9
57 24 8
57 25 10
57 26 11
57 27 9
57 28 6
57 29 5
57 30 4
57 31 11
57 32 7
57 33 3
57 34 2
57 35 4
57 36 11
57 37 12
57 38 10
57 39 3
57 40 4
57 41 1
57 42 8
57 43 8
57 44 2
57 45 2
57 46 11
57 47 5
57 48 9
57 49 11
57 50 7
57 51 10
57 52 10
57 53 12
57 54 9
57 55 1
57 56 11
58 0 2
58 1 1
58 2 6
58 3 4
58 4 4
58 5 6
58 6 11
58 7 6
58 8 11
58 9 7
58 10 5
58 11 7
58 12 2
58 13 11
58 14 7
58 15 9
58 16 12
58 17 5
58 18 12
58 19 2
58 20 2
58 21 1
58 22 4
58 23 1
58 24 7
58 25 3
58 26 9
58 27 12
58 28 1
58 29 7
58 30 6
58 31 6
58 32 1
58 33 12
58 34 10
58 35 10
58 36 4
58 37 1
58 38 3
58 39 6
58 40 10
58 41 9
58 42 4
58 43 12
58 44 2
58 45 5
58 46 11
58 47 1
58 48 3
58 49 11
58 50 9
58 51 4
58 52 11
58 53 12
58 54 11
58 55 2
58 56 4
58 57 2
59 0 4
59 1 10
59 2 3
59 3 2
59 4 4
59 5 4
59 6 9
59 7 2
59 8 1
59 9 2
59 10 3
59 11 1
59 12 10
59 13 3
59 14 8
59 15 3
59 16 9
59 17 4
59 18 2
59 19 1
59 20 3
59 21 11
59 22 6
59 23 6
59 24 4
59 25 5
59 26 10
59 27 3
59 28 10
59 29 9
59 30 11
59 31 3
59 32 6
59 33 9
59 34 1
59 35 7
59 36 9
59 37 10
59 38 11
59 39 12
59 40 3
59 41 3
59 42 1
59 43 4
59 44 5
59 45 7
59 46 2
59 47 1
59 48 6
59 49 7
59 50 4
59 51 3
59 52 4
59 53 6
59 54 7
59 55 10
59 56 3
59 57 3
59 58 11
